proyfinal/src/viki/013/experimentInOfficeAgust.take6.output/b37b6d83-8d20-4c9e-9e71-11ff9f5197ae.als.dat
{'cnf.clauses': '118081',
 'cnf.totvars': '69608',
 'conflict literals': '2767',
 'conflicts': '282',
 'decisions': '5216',
 'memused.mb': '15.97',
 'outcome': 'UNSAT',
 'propagations': '379895',
 'restarts': '3',
 'solver.msecs': 44,
 'task.msecs': 148}
